11
1 1 1 1 2 2 3 1 4 2 1 2 3 3 3 2 4 3 1 1 1 4 1 3 3 4 3 1 2 4 5 2 3 5 4 1 6 6 2 2 5 5 5 2 5 7 5 4 4 5 8 2 4 6 2 7 7 1 1 6 3 8 6 4 8 9 3 4 9 7 10 5 3 7 8 8 8 6 3 4 4 7 7 10 9 6 5 10 8 11 5 7 11 9 11 9 5 5 6 6 
